c NeuroCodeBench 2.0 CNF formula with verdict Unsat
p cnf 85 152
-1 32 25 85 52 30 48 84 0
1 -50 8 33 -73 -66 85 70 0
-1 32 -25 -76 82 50 3 39 0
1 50 78 -84 47 24 -6 -61 8 0
-1 -32 -29 -15 -60 61 -21 0
-1 32 25 -85 36 -60 50 -8 0
-1 32 25 -85 -36 -6 44 24 0
1 -50 -8 -66 -21 39 -40 0
1 -50 -8 66 -9 38 21 39 -20 0
-1 -32 -29 -15 -60 -61 -20 0
1 -50 -8 -66 -21 -39 -2 0
1 -50 8 33 73 0
1 50 78 -84 47 -24 -12 -44 -56 0
1 50 78 84 -62 -16 64 4 -2 0
1 -50 -8 66 9 -31 0
1 50 78 -84 47 -24 -12 -44 56 42 -41 0
-1 32 -25 76 81 2 0
1 -50 -8 -66 -21 39 40 -30 52 0
1 50 -78 -14 -68 29 -70 -61 -80 -3 0
1 -50 8 -33 -15 -46 -30 5 0
-1 32 -25 -76 82 -50 -46 80 -73 0
1 -50 8 -33 15 -61 -69 29 -10 0
-1 32 25 85 52 30 -48 0
-1 32 -25 -76 -82 63 9 0
-1 -32 -29 -15 -60 61 21 -34 0
1 -50 -8 66 -9 -38 69 35 85 0
1 -50 -8 66 -9 -38 69 35 -85 -5 0
-1 32 -25 -76 82 50 3 -39 0
1 -50 8 33 -73 66 0
1 50 78 -84 -47 0
-1 -32 -29 15 -39 -41 0
-1 32 -25 -76 82 -50 -46 80 73 53 0
-1 32 -25 -76 82 -50 46 -10 0
1 50 78 -84 47 -24 -12 -44 56 42 41 55 0
1 50 -78 -14 68 66 -64 -84 0
1 50 78 -84 47 -24 -12 -44 56 42 41 -55 0
-1 -32 -29 15 -39 41 0
1 -50 8 -33 -15 -46 30 -64 0
1 -50 8 -33 -15 -46 30 64 0
-1 -32 29 43 4 28 45 0
-1 -32 29 -43 -67 0
1 50 78 -84 47 -24 -12 44 -58 -6 0
1 -50 -8 -66 -21 -39 2 0
1 -50 8 33 -73 -66 85 -70 0
-1 32 -25 -76 82 50 -3 0
-1 -32 -29 15 39 -64 36 0
-1 32 -25 76 -81 -51 -64 0
-1 -32 29 43 -4 -40 0
-1 32 -25 76 -81 -51 64 0
-1 32 -25 -76 -82 -63 0
1 -50 -8 66 -9 38 -21 -39 54 0
-1 -32 -29 15 39 64 3 -46 63 0
-1 32 -25 -76 82 -50 46 10 0
-1 32 25 -85 -36 -6 44 -24 -9 0
-1 -32 -29 -15 60 -27 52 28 0
-1 -32 29 43 4 28 -45 -26 -76 0
-1 32 25 -85 -36 -6 44 -24 9 0
-1 -32 -29 -15 -60 61 21 34 0
-1 32 25 -85 36 60 2 -83 0
1 50 -78 -14 -68 29 70 -19 0
1 50 -78 -14 68 66 64 5 0
-1 -32 -29 15 39 64 3 -46 -63 0
-1 32 25 -85 -36 -6 -44 54 84 0
-1 -32 29 43 4 28 -45 26 -63 -73 0
-1 -32 -29 15 39 64 -3 0
1 50 78 -84 47 24 -6 61 0
-1 -32 29 43 4 28 -45 26 -63 73 0
-1 32 25 -85 36 -60 50 8 68 -41 0
1 50 78 84 -62 -16 64 -4 -32 0
-1 32 25 -85 36 60 -2 77 0
1 50 78 84 62 0
1 50 78 84 -62 -16 64 -4 32 0
-1 32 -25 76 -81 51 -9 0
-1 32 -25 76 81 -2 68 0
-1 32 25 -85 36 -60 50 8 68 41 0
-1 -32 29 43 4 -28 80 0
1 -50 -8 -66 21 79 0
-1 32 -25 76 -81 51 9 0
1 50 78 84 -62 16 0
1 -50 -8 66 -9 38 -21 39 0
1 -50 8 -33 -15 -46 -30 -5 0
-1 -32 29 43 -4 40 0
-1 -32 -29 -15 60 27 11 0
1 50 78 84 -62 -16 -64 23 0
1 50 -78 -14 68 66 64 -5 47 0
1 -50 8 -33 15 -61 -69 -29 85 0
1 50 78 84 -62 -16 -64 -23 0
1 50 -78 -14 -68 29 -70 -61 80 0
-1 32 25 -85 36 60 -2 -77 61 -18 0
-1 -32 29 -43 67 0
1 50 78 -84 47 -24 12 0
-1 -32 -29 -15 60 -27 -52 0
1 -50 8 -33 15 -61 -69 29 10 0
1 50 -78 14 0
1 -50 8 -33 -15 46 0
-1 32 25 85 52 30 48 -84 0
1 -50 -8 66 -9 38 21 39 20 0
-1 -32 -29 -15 -60 -61 20 0
-1 32 25 -85 -36 6 15 0
1 -50 -8 66 -9 38 21 -39 0
1 -50 8 -33 15 -61 69 0
-1 -32 29 43 4 -28 -80 0
-1 -32 -29 -15 60 27 -11 68 0
1 -50 -8 66 -9 -38 69 -35 0
-1 32 -25 -76 -82 63 -9 -65 0
-1 32 -25 -76 82 -50 -46 -80 0
1 50 -78 -14 -68 29 -70 -61 -80 3 0
-1 32 -25 -76 82 -50 -46 80 73 -53 0
1 -50 8 33 -73 -66 -85 0
1 -50 -8 66 -9 38 -21 -39 -54 0
-1 -32 -29 15 39 -64 -36 0
1 -50 -8 -66 -21 39 40 -30 -52 0
1 -50 -8 -66 21 -79 0
1 -50 8 -33 15 -61 -69 -29 -85 0
-1 32 25 -85 36 -60 -50 -69 0
1 50 78 84 -62 -16 64 4 2 63 0
1 50 -78 -14 68 66 64 -5 -47 0
-1 32 25 -85 -36 -6 -44 -54 0
1 50 -78 -14 68 66 -64 84 0
-1 32 25 -85 36 60 -2 -77 -61 0
-1 32 -25 -76 -82 63 -9 65 0
1 50 -78 -14 -68 29 -70 61 0
1 50 -78 -14 -68 -29 0
1 50 78 84 -62 -16 64 4 2 -63 0
1 50 -78 -14 -68 29 70 19 0
-1 32 25 -85 36 60 2 83 0
1 50 78 -84 47 -24 -12 44 58 0
-1 -32 29 43 4 28 -45 26 63 0
-1 32 25 -85 36 -60 -50 69 -15 0
-1 32 25 -85 36 -60 50 8 -68 0
-1 32 25 85 52 -30 0
-1 32 25 -85 -36 6 -15 0
-1 -32 -29 15 39 64 3 46 0
1 50 78 -84 47 24 6 -73 0
1 50 -78 -14 68 -66 0
-1 32 25 -85 36 60 -2 -77 61 18 0
1 50 78 -84 47 24 6 73 0
-1 32 25 -85 36 -60 -50 69 15 0
1 50 78 -84 47 -24 -12 -44 56 -42 0
-1 32 -25 76 81 -2 -68 0
1 50 78 -84 47 24 -6 -61 -8 0
1 -50 -8 66 -9 -38 69 35 -85 5 0
1 -50 -8 -66 -21 39 40 30 0
-1 32 25 85 -52 0
-1 -32 29 43 4 28 -45 -26 76 0
1 -50 -8 66 -9 -38 -69 0
-1 32 25 -85 -36 -6 -44 54 -84 0
1 -50 8 -33 15 61 0
-1 -32 -29 -15 60 -27 52 -28 0
-1 -32 -29 -15 60 27 -11 -68 0
1 50 78 -84 47 -24 -12 44 -58 6 0
1 -50 -8 66 9 31 0
